p cnf 10 50
1 6 3 0
-8 3 -4 0
8 -2 -9 0
6 1 -10 0
-1 5 4 0
5 -3 10 0
-7 -4 10 0
3 -5 -1 0
8 10 -9 0
-5 6 8 0
1 -5 -10 0
2 -8 5 0
-5 4 10 0
-6 -5 2 0
-6 1 -4 0
1 -7 8 0
-1 7 4 0
9 6 -3 0
9 -1 -8 0
1 2 -6 0
5 2 -1 0
-4 -10 7 0
9 2 -3 0
6 -5 2 0
5 -2 -4 0
7 8 -5 0
8 6 -3 0
1 -5 -2 0
-6 -8 -9 0
-1 -8 -3 0
-7 -5 2 0
7 -10 1 0
-6 3 -4 0
9 -6 -5 0
8 5 -1 0
-9 -2 1 0
3 9 -4 0
-7 -2 4 0
-6 4 -7 0
7 -4 -6 0
-8 2 7 0
7 9 -1 0
-9 2 -7 0
-5 8 4 0
-5 8 -10 0
-1 6 -3 0
8 6 1 0
3 10 7 0
2 -4 -6 0
-6 9 -7 0
